12
48
786
930
826
971
1069
1004
1117
1085
819
1132
1084
653
64	115
373	401
913	887
153	215
725	703
169	250
660	750
436	422
81	71
250	205
101	39
473	380
75	106
264	353
168	233
51	86
264	181
751	768
632	703
361	321
250	250
721	800
583	610
533	617
901	928
795	707
568	488
862	898
194	162
371	330
392	314
847	818
782	805
879	931
287	217
645	556
666	673
109	129
362	312
369	366
903	975
808	858
781	830
620	590
889	962
195	249
417	466
259	257
